<?xml version = "1.0" encoding="UTF-8" standalone="yes"?>
<CPLEXSolution version="1.2">
 <header
   problemName="problem.clp"
   solutionName="incumbent"
   solutionIndex="-1"
   objectiveValue="2"
   solutionTypeValue="3"
   solutionTypeString="primal"
   solutionStatusValue="101"
   solutionStatusString="integer optimal solution"
   solutionMethodString="mip"
   primalFeasible="1"
   dualFeasible="1"
   MIPNodes="0"
   MIPIterations="0"
   writeLevel="1"/>
 <quality
   epInt="1e-05"
   epRHS="1e-06"
   maxIntInfeas="0"
   maxPrimalInfeas="0"
   maxX="1"
   maxSlack="0"/>
 <linearConstraints>
  <constraint name="c1" index="0" slack="0"/>
  <constraint name="c2" index="1" slack="0"/>
  <constraint name="c3" index="2" slack="0"/>
  <constraint name="c4" index="3" slack="0"/>
  <constraint name="c5" index="4" slack="0"/>
  <constraint name="c6" index="5" slack="0"/>
  <constraint name="c7" index="6" slack="0"/>
  <constraint name="c8" index="7" slack="0"/>
  <constraint name="c9" index="8" slack="0"/>
  <constraint name="c10" index="9" slack="0"/>
  <constraint name="c11" index="10" slack="0"/>
  <constraint name="c12" index="11" slack="0"/>
  <constraint name="c13" index="12" slack="0"/>
  <constraint name="c14" index="13" slack="0"/>
  <constraint name="c15" index="14" slack="0"/>
  <constraint name="c16" index="15" slack="0"/>
  <constraint name="c17" index="16" slack="0"/>
  <constraint name="c18" index="17" slack="0"/>
  <constraint name="c19" index="18" slack="0"/>
  <constraint name="c20" index="19" slack="0"/>
  <constraint name="c21" index="20" slack="0"/>
  <constraint name="c22" index="21" slack="0"/>
  <constraint name="c23" index="22" slack="0"/>
  <constraint name="c24" index="23" slack="0"/>
  <constraint name="c25" index="24" slack="0"/>
 </linearConstraints>
 <variables>
  <variable name="drive_truckdriver1s1s0truck1" index="0" value="0"/>
  <variable name="load_truckdriver1truck2package4s0" index="1" value="0"/>
  <variable name="drive_truckdriver1s2s1truck2" index="2" value="0"/>
  <variable name="drive_truckdriver1s1s2truck1" index="3" value="0"/>
  <variable name="load_truckdriver1truck2package1s1" index="4" value="0"/>
  <variable name="board_truckdriver1truck2s1" index="5" value="0"/>
  <variable name="unload_truckdriver1truck2package3s0" index="6" value="0"/>
  <variable name="load_truckdriver1truck1package1s0" index="7" value="0"/>
  <variable name="unload_truckdriver1truck1package1s1" index="8" value="0"/>
  <variable name="load_truckdriver1truck2package4s1" index="9" value="0"/>
  <variable name="board_truckdriver1truck1s0" index="10" value="0"/>
  <variable name="drive_truckdriver1s2s1truck1" index="11" value="0"/>
  <variable name="unload_truckdriver1truck1package4s0" index="12" value="0"/>
  <variable name="drive_truckdriver1s0s1truck1" index="13" value="0"/>
  <variable name="drive_truckdriver1s0s1truck2" index="14" value="0"/>
  <variable name="load_truckdriver1truck2package4s2" index="15" value="0"/>
  <variable name="load_truckdriver1truck1package4s1" index="16" value="0"/>
  <variable name="load_truckdriver1truck2package3s2" index="17" value="0"/>
  <variable name="load_truckdriver1truck1package1s2" index="18" value="0"/>
  <variable name="unload_truckdriver1truck2package4s0" index="19" value="0"/>
  <variable name="unload_truckdriver1truck2package1s0" index="20" value="0"/>
  <variable name="disembark_truckdriver1truck1s1" index="21" value="1"/>
  <variable name="load_truckdriver1truck2package1s2" index="22" value="0"/>
  <variable name="unload_truckdriver1truck2package3s1" index="23" value="0"/>
  <variable name="unload_truckdriver1truck1package1s0" index="24" value="0"/>
  <variable name="load_truckdriver1truck2package3s0" index="25" value="0"/>
  <variable name="unload_truckdriver1truck1package4s1" index="26" value="0"/>
  <variable name="unload_truckdriver1truck2package2s2" index="27" value="0"/>
  <variable name="unload_truckdriver1truck1package3s0" index="28" value="0"/>
  <variable name="load_truckdriver1truck1package2s1" index="29" value="0"/>
  <variable name="unload_truckdriver1truck1package4s2" index="30" value="0"/>
  <variable name="unload_truckdriver1truck2package2s0" index="31" value="0"/>
  <variable name="board_truckdriver1truck2s0" index="32" value="0"/>
  <variable name="unload_truckdriver1truck2package2s1" index="33" value="0"/>
  <variable name="drive_truckdriver1s1s0truck2" index="34" value="0"/>
  <variable name="drive_truckdriver1s2s0truck2" index="35" value="0"/>
  <variable name="board_truckdriver1truck1s2" index="36" value="0"/>
  <variable name="board_truckdriver1truck1s1" index="37" value="1"/>
  <variable name="board_truckdriver1truck2s2" index="38" value="0"/>
  <variable name="load_truckdriver1truck2package2s2" index="39" value="0"/>
  <variable name="unload_truckdriver1truck2package1s2" index="40" value="0"/>
  <variable name="disembark_truckdriver1truck2s1" index="41" value="0"/>
  <variable name="load_truckdriver1truck1package1s1" index="42" value="0"/>
  <variable name="disembark_truckdriver1truck2s2" index="43" value="0"/>
  <variable name="unload_truckdriver1truck1package2s0" index="44" value="0"/>
  <variable name="unload_truckdriver1truck1package3s1" index="45" value="0"/>
  <variable name="unload_truckdriver1truck2package4s2" index="46" value="0"/>
  <variable name="unload_truckdriver1truck2package4s1" index="47" value="0"/>
  <variable name="load_truckdriver1truck1package4s0" index="48" value="0"/>
  <variable name="unload_truckdriver1truck1package2s2" index="49" value="0"/>
  <variable name="unload_truckdriver1truck2package3s2" index="50" value="0"/>
  <variable name="unload_truckdriver1truck1package2s1" index="51" value="0"/>
  <variable name="disembark_truckdriver1truck2s0" index="52" value="0"/>
  <variable name="drive_truckdriver1s2s0truck1" index="53" value="0"/>
  <variable name="load_truckdriver1truck1package4s2" index="54" value="0"/>
  <variable name="drive_truckdriver1s0s2truck1" index="55" value="0"/>
  <variable name="unload_truckdriver1truck1package1s2" index="56" value="0"/>
  <variable name="load_truckdriver1truck2package2s0" index="57" value="0"/>
  <variable name="load_truckdriver1truck2package1s0" index="58" value="0"/>
  <variable name="load_truckdriver1truck2package3s1" index="59" value="0"/>
  <variable name="load_truckdriver1truck1package3s0" index="60" value="0"/>
  <variable name="unload_truckdriver1truck1package3s2" index="61" value="0"/>
  <variable name="load_truckdriver1truck2package2s1" index="62" value="0"/>
  <variable name="unload_truckdriver1truck2package1s1" index="63" value="0"/>
  <variable name="disembark_truckdriver1truck1s0" index="64" value="0"/>
  <variable name="drive_truckdriver1s0s2truck2" index="65" value="0"/>
  <variable name="drive_truckdriver1s1s2truck2" index="66" value="0"/>
  <variable name="load_truckdriver1truck1package3s2" index="67" value="0"/>
  <variable name="load_truckdriver1truck1package2s0" index="68" value="0"/>
  <variable name="load_truckdriver1truck1package2s2" index="69" value="0"/>
  <variable name="load_truckdriver1truck1package3s1" index="70" value="0"/>
  <variable name="disembark_truckdriver1truck1s2" index="71" value="0"/>
 </variables>
</CPLEXSolution>
